8338
50, 20, 23, 21, 42, 7, 2, 30, 29, 47, 26, 12, 51, 11, 52, 14, 13, 27, 28, 25, 46, 34, 35, 36, 49, 32, 1, 22, 31, 18, 17, 3, 45, 19, 41, 8, 9, 10, 33, 43, 4, 6, 15, 5, 24, 48, 38, 37, 40, 39, 44, 16
